JulietBench/Juliet_Based_Patch_Bench/linux/CWE-189-Numeric-Errors/CVE_2011_3191_9438fabb73eb48055b58b89fc51e0bc4db22fabd/ResultCIFSFindNext_Snippet_patch2EQ.smt2
; benchmark generated from python API
(set-info :status unknown)
(declare-fun R () (_ BitVec 32))
(declare-fun rdi () (_ BitVec 64))
(assert
 (let (($x57 (= (_ bv0 32) R)))
 (let ((?x6 ((_ extract 31 0) rdi)))
 (let (($x11 (bvsge (_ bv4095 32) ?x6)))
 (let (($x58 (and $x11 $x57)))
 (let (($x55 (= (_ bv4294967274 32) R)))
 (let (($x41 (bvslt (_ bv4095 32) ?x6)))
 (let (($x56 (and $x41 $x55)))
 (let (($x59 (or $x56 $x58)))
 (and $x59 $x57))))))))))
(check-sat)
